NAME: CMT5_7
TYPE: CVRP
COMMENT: 1291.29 - Cluster Nr.7
DIMENSION: 14
CAPACITY: 200
EDGE_WEIGHT_TYPE: EUC_2D
NODE_COORD_TYPE: TWOD_COORDS
NODE_COORD_SECTION: 
7 38 46
11 33 44
12 27 43
4 42 41
5 33 34
10 31 32
13 41 37
2 35 51
1 41 46
14 37 47
9 35 35
3 32 39
6 35 40
8 30 48
DEPOT_SECTION: 
9
-1
DEMAND_SECTION: 
10 29
3 5
11 20
9 0
13 16
12 9
14 6
5 19
6 16
8 15
2 16
4 19
1 18
7 12
EOF
